NAME : 84fl417.9651.tour
COMMENT : Length = 9651
COMMENT : Found by LKH [Keld Helsgaun] Wed Jun  5 21:42:06 2013
TYPE : TOUR
DIMENSION : 84
TOUR_SECTION
6
12
17
15
30
23
145
139
133
333
347
343
342
341
33
37
40
60
72
103
401
390
363
364
366
367
212
218
224
369
372
374
375
377
378
252
286
292
105
102
98
99
76
81
80
74
96
95
87
90
69
62
58
59
53
39
42
45
47
49
51
57
55
52
50
43
41
38
36
173
167
161
155
339
338
337
352
351
350
22
8
19
31
21
-1
EOF
